
%FILE DATA:	Soccer Computational Problem for MiniZinc Models	%
%AUTHOR:	Jack Wall	%
%CONTACT:  	116397063@umail.ucc.ie			%
%LAST UPDATE:	02/24/2020, 18:51:12						%
%DESCRIPTION: 	54 games played with 18 games left				%


n=9; %number of teams

%Games to play
games=[|2,9|7,6|8,4|2,7|3,4|1,8|2,5|4,8|3,8|1,6|8,3|9,2|7,2|1,5|6,7|5,1|9,7|1,7|];

%Initial points
iPoints=[29,15,10,8,22,28,12,15,20];

%POSITION CONSTRAINTS
% [|teamID, operator, position|...]
% operators index:
%  1 for =  operator
%  2 for >  operator
%  3 for >= operator
%  4 for <  operator
%  5 for <= operator
positionConstraints=[|1,4,2|6,4,3|5,2,2|8,1,4|];